52339 25291
16932 59502
47210 19197
22514 23707
45722 64144
54819 9130
50503 34243
29227 3707
5482 47352
28818 19616
19567 42246
6067 48040
11259 27034
14868 14187
43821 46609
51321 38907
44538 31083
19062 21962
18338 15254
44421 5759
57879 49845
11501 4408
39248 5076
41047 2198
60281 32189
9398 22339
52161 3819
46101 20893
37302 4657
24841 53493
16549 16758
8183 23627
52597 60073
22513 9436
1634 12380
6767 29518
56287 51568
38436 55214
7214 39526
12160 38053
27329 54906
